p cnf 588 1143 
-1  2 0 
-3  2 0 
-1 -3  4 0 
 2 -4 0 
-5  6 0 
-7  6 0 
-5 -7  8 0 
 6 -8 0 
-2  9 0 
-6  9 0 
-2 -6  10 0 
 9 -10 0 
-4  11 0 
-8  11 0 
-4 -8  12 0 
 11 -12 0 
-11  13 0 
-10  13 0 
-11 -10  14 0 
 13 -14 0 
-15  16 0 
-17  16 0 
-15 -17  18 0 
 16 -18 0 
-19  20 0 
-21  20 0 
-19 -21  22 0 
 20 -22 0 
-16  23 0 
-20  23 0 
-16 -20  24 0 
 23 -24 0 
-18  25 0 
-22  25 0 
-18 -22  26 0 
 25 -26 0 
-25  27 0 
-24  27 0 
-25 -24  28 0 
 27 -28 0 
-9  29 0 
-23  29 0 
-9 -23  30 0 
 29 -30 0 
-14  31 0 
-28  31 0 
-14 -28  32 0 
 31 -32 0 
-31  33 0 
-30  33 0 
-31 -30  34 0 
 33 -34 0 
-13  35 0 
-27  35 0 
-13 -27  36 0 
 35 -36 0 
-12  37 0 
-26  37 0 
-12 -26  38 0 
 37 -38 0 
-37  39 0 
-36  39 0 
-37 -36  40 0 
 39 -40 0 
-35  41 0 
-33  41 0 
-35 -33  42 0 
 41 -42 0 
-39  43 0 
-34  43 0 
-39 -34  44 0 
 43 -44 0 
-40  45 0 
-32  45 0 
-40 -32  46 0 
 45 -46 0 
-47  48 0 
-49  48 0 
-47 -49  50 0 
 48 -50 0 
-51  52 0 
-53  52 0 
-51 -53  54 0 
 52 -54 0 
-48  55 0 
-52  55 0 
-48 -52  56 0 
 55 -56 0 
-50  57 0 
-54  57 0 
-50 -54  58 0 
 57 -58 0 
-57  59 0 
-56  59 0 
-57 -56  60 0 
 59 -60 0 
-61  62 0 
-63  62 0 
-61 -63  64 0 
 62 -64 0 
-65  66 0 
-67  66 0 
-65 -67  68 0 
 66 -68 0 
-62  69 0 
-66  69 0 
-62 -66  70 0 
 69 -70 0 
-64  71 0 
-68  71 0 
-64 -68  72 0 
 71 -72 0 
-71  73 0 
-70  73 0 
-71 -70  74 0 
 73 -74 0 
-55  75 0 
-69  75 0 
-55 -69  76 0 
 75 -76 0 
-60  77 0 
-74  77 0 
-60 -74  78 0 
 77 -78 0 
-77  79 0 
-76  79 0 
-77 -76  80 0 
 79 -80 0 
-59  81 0 
-73  81 0 
-59 -73  82 0 
 81 -82 0 
-58  83 0 
-72  83 0 
-58 -72  84 0 
 83 -84 0 
-83  85 0 
-82  85 0 
-83 -82  86 0 
 85 -86 0 
-81  87 0 
-79  87 0 
-81 -79  88 0 
 87 -88 0 
-85  89 0 
-80  89 0 
-85 -80  90 0 
 89 -90 0 
-86  91 0 
-78  91 0 
-86 -78  92 0 
 91 -92 0 
-29  93 0 
-75  93 0 
-29 -75  94 0 
 93 -94 0 
-44  95 0 
-90  95 0 
-44 -90  96 0 
 95 -96 0 
-95  97 0 
-94  97 0 
-95 -94  98 0 
 97 -98 0 
-42  99 0 
-88  99 0 
-42 -88  100 0 
 99 -100 0 
-46  101 0 
-92  101 0 
-46 -92  102 0 
 101 -102 0 
-101  103 0 
-100  103 0 
-101 -100  104 0 
 103 -104 0 
-99  105 0 
-97  105 0 
-99 -97  106 0 
 105 -106 0 
-103  107 0 
-98  107 0 
-103 -98  108 0 
 107 -108 0 
-104  109 0 
-96  109 0 
-104 -96  110 0 
 109 -110 0 
-41  111 0 
-87  111 0 
-41 -87  112 0 
 111 -112 0 
-45  113 0 
-91  113 0 
-45 -91  114 0 
 113 -114 0 
-113  115 0 
-112  115 0 
-113 -112  116 0 
 115 -116 0 
-43  117 0 
-89  117 0 
-43 -89  118 0 
 117 -118 0 
-38  119 0 
-84  119 0 
-38 -84  120 0 
 119 -120 0 
-119  121 0 
-118  121 0 
-119 -118  122 0 
 121 -122 0 
-117  123 0 
-115  123 0 
-117 -115  124 0 
 123 -124 0 
-121  125 0 
-116  125 0 
-121 -116  126 0 
 125 -126 0 
-122  127 0 
-114  127 0 
-122 -114  128 0 
 127 -128 0 
-111  129 0 
-105  129 0 
-111 -105  130 0 
 129 -130 0 
-123  131 0 
-106  131 0 
-123 -106  132 0 
 131 -132 0 
-124  133 0 
-107  133 0 
-124 -107  134 0 
 133 -134 0 
-125  135 0 
-108  135 0 
-125 -108  136 0 
 135 -136 0 
-126  137 0 
-109  137 0 
-126 -109  138 0 
 137 -138 0 
-127  139 0 
-110  139 0 
-127 -110  140 0 
 139 -140 0 
-128  141 0 
-102  141 0 
-128 -102  142 0 
 141 -142 0 
-143  144 0 
-145  144 0 
-143 -145  146 0 
 144 -146 0 
-147  148 0 
-149  148 0 
-147 -149  150 0 
 148 -150 0 
-144  151 0 
-148  151 0 
-144 -148  152 0 
 151 -152 0 
-146  153 0 
-150  153 0 
-146 -150  154 0 
 153 -154 0 
-153  155 0 
-152  155 0 
-153 -152  156 0 
 155 -156 0 
-157  158 0 
-159  158 0 
-157 -159  160 0 
 158 -160 0 
-161  162 0 
-163  162 0 
-161 -163  164 0 
 162 -164 0 
-158  165 0 
-162  165 0 
-158 -162  166 0 
 165 -166 0 
-160  167 0 
-164  167 0 
-160 -164  168 0 
 167 -168 0 
-167  169 0 
-166  169 0 
-167 -166  170 0 
 169 -170 0 
-151  171 0 
-165  171 0 
-151 -165  172 0 
 171 -172 0 
-156  173 0 
-170  173 0 
-156 -170  174 0 
 173 -174 0 
-173  175 0 
-172  175 0 
-173 -172  176 0 
 175 -176 0 
-155  177 0 
-169  177 0 
-155 -169  178 0 
 177 -178 0 
-154  179 0 
-168  179 0 
-154 -168  180 0 
 179 -180 0 
-179  181 0 
-178  181 0 
-179 -178  182 0 
 181 -182 0 
-177  183 0 
-175  183 0 
-177 -175  184 0 
 183 -184 0 
-181  185 0 
-176  185 0 
-181 -176  186 0 
 185 -186 0 
-182  187 0 
-174  187 0 
-182 -174  188 0 
 187 -188 0 
-189  190 0 
-191  190 0 
-189 -191  192 0 
 190 -192 0 
-193  194 0 
-195  194 0 
-193 -195  196 0 
 194 -196 0 
-190  197 0 
-194  197 0 
-190 -194  198 0 
 197 -198 0 
-192  199 0 
-196  199 0 
-192 -196  200 0 
 199 -200 0 
-199  201 0 
-198  201 0 
-199 -198  202 0 
 201 -202 0 
-203  204 0 
-205  204 0 
-203 -205  206 0 
 204 -206 0 
-207  208 0 
-209  208 0 
-207 -209  210 0 
 208 -210 0 
-204  211 0 
-208  211 0 
-204 -208  212 0 
 211 -212 0 
-206  213 0 
-210  213 0 
-206 -210  214 0 
 213 -214 0 
-213  215 0 
-212  215 0 
-213 -212  216 0 
 215 -216 0 
-197  217 0 
-211  217 0 
-197 -211  218 0 
 217 -218 0 
-202  219 0 
-216  219 0 
-202 -216  220 0 
 219 -220 0 
-219  221 0 
-218  221 0 
-219 -218  222 0 
 221 -222 0 
-201  223 0 
-215  223 0 
-201 -215  224 0 
 223 -224 0 
-200  225 0 
-214  225 0 
-200 -214  226 0 
 225 -226 0 
-225  227 0 
-224  227 0 
-225 -224  228 0 
 227 -228 0 
-223  229 0 
-221  229 0 
-223 -221  230 0 
 229 -230 0 
-227  231 0 
-222  231 0 
-227 -222  232 0 
 231 -232 0 
-228  233 0 
-220  233 0 
-228 -220  234 0 
 233 -234 0 
-171  235 0 
-217  235 0 
-171 -217  236 0 
 235 -236 0 
-186  237 0 
-232  237 0 
-186 -232  238 0 
 237 -238 0 
-237  239 0 
-236  239 0 
-237 -236  240 0 
 239 -240 0 
-184  241 0 
-230  241 0 
-184 -230  242 0 
 241 -242 0 
-188  243 0 
-234  243 0 
-188 -234  244 0 
 243 -244 0 
-243  245 0 
-242  245 0 
-243 -242  246 0 
 245 -246 0 
-241  247 0 
-239  247 0 
-241 -239  248 0 
 247 -248 0 
-245  249 0 
-240  249 0 
-245 -240  250 0 
 249 -250 0 
-246  251 0 
-238  251 0 
-246 -238  252 0 
 251 -252 0 
-183  253 0 
-229  253 0 
-183 -229  254 0 
 253 -254 0 
-187  255 0 
-233  255 0 
-187 -233  256 0 
 255 -256 0 
-255  257 0 
-254  257 0 
-255 -254  258 0 
 257 -258 0 
-185  259 0 
-231  259 0 
-185 -231  260 0 
 259 -260 0 
-180  261 0 
-226  261 0 
-180 -226  262 0 
 261 -262 0 
-261  263 0 
-260  263 0 
-261 -260  264 0 
 263 -264 0 
-259  265 0 
-257  265 0 
-259 -257  266 0 
 265 -266 0 
-263  267 0 
-258  267 0 
-263 -258  268 0 
 267 -268 0 
-264  269 0 
-256  269 0 
-264 -256  270 0 
 269 -270 0 
-253  271 0 
-247  271 0 
-253 -247  272 0 
 271 -272 0 
-265  273 0 
-248  273 0 
-265 -248  274 0 
 273 -274 0 
-266  275 0 
-249  275 0 
-266 -249  276 0 
 275 -276 0 
-267  277 0 
-250  277 0 
-267 -250  278 0 
 277 -278 0 
-268  279 0 
-251  279 0 
-268 -251  280 0 
 279 -280 0 
-269  281 0 
-252  281 0 
-269 -252  282 0 
 281 -282 0 
-270  283 0 
-244  283 0 
-270 -244  284 0 
 283 -284 0 
-93 -235  285 0 
 286 -285 0 
-136  287 0 
-278  287 0 
-136 -278 0 
-287 -285  288 0 
 286 -288 0 
-132 -274  289 0 
 286 -289 0 
-140  290 0 
-282  290 0 
-140 -282 0 
-290  291 0 
-289  291 0 
-290 -289 0 
-291 -288  292 0 
 286 -292 0 
-130 -272  293 0 
 286 -293 0 
-138  294 0 
-280  294 0 
-138 -280 0 
-294 -293  295 0 
 286 -295 0 
-134 -276  296 0 
 286 -296 0 
-142  297 0 
-284  297 0 
-142 -284 0 
-297  298 0 
-296  298 0 
-297 -296 0 
-298  299 0 
-295  299 0 
-298 -295 0 
-299 -292  300 0 
 286 -300 0 
-129 -271  301 0 
 286 -301 0 
-137  302 0 
-279  302 0 
-137 -279 0 
-302 -301  303 0 
 286 -303 0 
-133 -275  304 0 
 286 -304 0 
-141  305 0 
-283  305 0 
-141 -283 0 
-305  306 0 
-304  306 0 
-305 -304 0 
-306 -303  307 0 
 286 -307 0 
-131 -273  308 0 
 286 -308 0 
-139  309 0 
-281  309 0 
-139 -281 0 
-309 -308  310 0 
 286 -310 0 
-135 -277  311 0 
 286 -311 0 
-120  312 0 
-262  312 0 
-120 -262 0 
-312  313 0 
-311  313 0 
-312 -311 0 
-313  314 0 
-310  314 0 
-313 -310 0 
-314  315 0 
-307  315 0 
-314 -307 0 
-315 -300 0 
 1  3 -316 0 
 1 -317 0 
 3 -317 0 
 316 -317 0 
 5  7 -318 0 
 5 -319 0 
 7 -319 0 
 318 -319 0 
 316  318 -320 0 
 316 -321 0 
 318 -321 0 
 320 -321 0 
 317  319 -322 0 
 317 -323 0 
 319 -323 0 
 322 -323 0 
 322  321 -324 0 
 322 -325 0 
 321 -325 0 
 324 -325 0 
 15  17 -326 0 
 15 -327 0 
 17 -327 0 
 326 -327 0 
 19  21 -328 0 
 19 -329 0 
 21 -329 0 
 328 -329 0 
 326  328 -330 0 
 326 -331 0 
 328 -331 0 
 330 -331 0 
 327  329 -332 0 
 327 -333 0 
 329 -333 0 
 332 -333 0 
 332  331 -334 0 
 332 -335 0 
 331 -335 0 
 334 -335 0 
 320  330 -336 0 
 320 -337 0 
 330 -337 0 
 336 -337 0 
 325  335 -338 0 
 325 -339 0 
 335 -339 0 
 338 -339 0 
 338  337 -340 0 
 338 -341 0 
 337 -341 0 
 340 -341 0 
 324  334 -342 0 
 324 -343 0 
 334 -343 0 
 342 -343 0 
 323  333 -344 0 
 323 -345 0 
 333 -345 0 
 344 -345 0 
 344  343 -346 0 
 344 -347 0 
 343 -347 0 
 346 -347 0 
 342  340 -348 0 
 342 -349 0 
 340 -349 0 
 348 -349 0 
 346  341 -350 0 
 346 -351 0 
 341 -351 0 
 350 -351 0 
 347  339 -352 0 
 347 -353 0 
 339 -353 0 
 352 -353 0 
 47  49 -354 0 
 47 -355 0 
 49 -355 0 
 354 -355 0 
 51  53 -356 0 
 51 -357 0 
 53 -357 0 
 356 -357 0 
 354  356 -358 0 
 354 -359 0 
 356 -359 0 
 358 -359 0 
 355  357 -360 0 
 355 -361 0 
 357 -361 0 
 360 -361 0 
 360  359 -362 0 
 360 -363 0 
 359 -363 0 
 362 -363 0 
 61  63 -364 0 
 61 -365 0 
 63 -365 0 
 364 -365 0 
 65  67 -366 0 
 65 -367 0 
 67 -367 0 
 366 -367 0 
 364  366 -368 0 
 364 -369 0 
 366 -369 0 
 368 -369 0 
 365  367 -370 0 
 365 -371 0 
 367 -371 0 
 370 -371 0 
 370  369 -372 0 
 370 -373 0 
 369 -373 0 
 372 -373 0 
 358  368 -374 0 
 358 -375 0 
 368 -375 0 
 374 -375 0 
 363  373 -376 0 
 363 -377 0 
 373 -377 0 
 376 -377 0 
 376  375 -378 0 
 376 -379 0 
 375 -379 0 
 378 -379 0 
 362  372 -380 0 
 362 -381 0 
 372 -381 0 
 380 -381 0 
 361  371 -382 0 
 361 -383 0 
 371 -383 0 
 382 -383 0 
 382  381 -384 0 
 382 -385 0 
 381 -385 0 
 384 -385 0 
 380  378 -386 0 
 380 -387 0 
 378 -387 0 
 386 -387 0 
 384  379 -388 0 
 384 -389 0 
 379 -389 0 
 388 -389 0 
 385  377 -390 0 
 385 -391 0 
 377 -391 0 
 390 -391 0 
 336  374 0 
 336 -392 0 
 374 -392 0 
 393 -392 0 
 351  389 -394 0 
 351 -395 0 
 389 -395 0 
 394 -395 0 
 394  392 -396 0 
 394 -397 0 
 392 -397 0 
 396 -397 0 
 349  387 -398 0 
 349 -399 0 
 387 -399 0 
 398 -399 0 
 353  391 -400 0 
 353 -401 0 
 391 -401 0 
 400 -401 0 
 400  399 -402 0 
 400 -403 0 
 399 -403 0 
 402 -403 0 
 398  396 -404 0 
 398 -405 0 
 396 -405 0 
 404 -405 0 
 402  397 -406 0 
 402 -407 0 
 397 -407 0 
 406 -407 0 
 403  395 -408 0 
 403 -409 0 
 395 -409 0 
 408 -409 0 
 348  386 -410 0 
 348 -411 0 
 386 -411 0 
 410 -411 0 
 352  390 -412 0 
 352 -413 0 
 390 -413 0 
 412 -413 0 
 412  411 -414 0 
 412 -415 0 
 411 -415 0 
 414 -415 0 
 350  388 -416 0 
 350 -417 0 
 388 -417 0 
 416 -417 0 
 345  383 -418 0 
 345 -419 0 
 383 -419 0 
 418 -419 0 
 418  417 -420 0 
 418 -421 0 
 417 -421 0 
 420 -421 0 
 416  414 -422 0 
 416 -423 0 
 414 -423 0 
 422 -423 0 
 420  415 -424 0 
 420 -425 0 
 415 -425 0 
 424 -425 0 
 421  413 -426 0 
 421 -427 0 
 413 -427 0 
 426 -427 0 
 410  404 -428 0 
 410 -429 0 
 404 -429 0 
 428 -429 0 
 422  405 -430 0 
 422 -431 0 
 405 -431 0 
 430 -431 0 
 423  406 -432 0 
 423 -433 0 
 406 -433 0 
 432 -433 0 
 424  407 -434 0 
 424 -435 0 
 407 -435 0 
 434 -435 0 
 425  408 -436 0 
 425 -437 0 
 408 -437 0 
 436 -437 0 
 426  409 -438 0 
 426 -439 0 
 409 -439 0 
 438 -439 0 
 427  401 -440 0 
 427 -441 0 
 401 -441 0 
 440 -441 0 
 143  145 -442 0 
 143 -443 0 
 145 -443 0 
 442 -443 0 
 147  149 -444 0 
 147 -445 0 
 149 -445 0 
 444 -445 0 
 442  444 -446 0 
 442 -447 0 
 444 -447 0 
 446 -447 0 
 443  445 -448 0 
 443 -449 0 
 445 -449 0 
 448 -449 0 
 448  447 -450 0 
 448 -451 0 
 447 -451 0 
 450 -451 0 
 157  159 -452 0 
 157 -453 0 
 159 -453 0 
 452 -453 0 
 161  163 -454 0 
 161 -455 0 
 163 -455 0 
 454 -455 0 
 452  454 -456 0 
 452 -457 0 
 454 -457 0 
 456 -457 0 
 453  455 -458 0 
 453 -459 0 
 455 -459 0 
 458 -459 0 
 458  457 -460 0 
 458 -461 0 
 457 -461 0 
 460 -461 0 
 446  456 -462 0 
 446 -463 0 
 456 -463 0 
 462 -463 0 
 451  461 -464 0 
 451 -465 0 
 461 -465 0 
 464 -465 0 
 464  463 -466 0 
 464 -467 0 
 463 -467 0 
 466 -467 0 
 450  460 -468 0 
 450 -469 0 
 460 -469 0 
 468 -469 0 
 449  459 -470 0 
 449 -471 0 
 459 -471 0 
 470 -471 0 
 470  469 -472 0 
 470 -473 0 
 469 -473 0 
 472 -473 0 
 468  466 -474 0 
 468 -475 0 
 466 -475 0 
 474 -475 0 
 472  467 -476 0 
 472 -477 0 
 467 -477 0 
 476 -477 0 
 473  465 -478 0 
 473 -479 0 
 465 -479 0 
 478 -479 0 
 189  191 -480 0 
 189 -481 0 
 191 -481 0 
 480 -481 0 
 193  195 -482 0 
 193 -483 0 
 195 -483 0 
 482 -483 0 
 480  482 -484 0 
 480 -485 0 
 482 -485 0 
 484 -485 0 
 481  483 -486 0 
 481 -487 0 
 483 -487 0 
 486 -487 0 
 486  485 -488 0 
 486 -489 0 
 485 -489 0 
 488 -489 0 
 203  205 -490 0 
 203 -491 0 
 205 -491 0 
 490 -491 0 
 207  209 -492 0 
 207 -493 0 
 209 -493 0 
 492 -493 0 
 490  492 -494 0 
 490 -495 0 
 492 -495 0 
 494 -495 0 
 491  493 -496 0 
 491 -497 0 
 493 -497 0 
 496 -497 0 
 496  495 -498 0 
 496 -499 0 
 495 -499 0 
 498 -499 0 
 484  494 -500 0 
 484 -501 0 
 494 -501 0 
 500 -501 0 
 489  499 -502 0 
 489 -503 0 
 499 -503 0 
 502 -503 0 
 502  501 -504 0 
 502 -505 0 
 501 -505 0 
 504 -505 0 
 488  498 -506 0 
 488 -507 0 
 498 -507 0 
 506 -507 0 
 487  497 -508 0 
 487 -509 0 
 497 -509 0 
 508 -509 0 
 508  507 -510 0 
 508 -511 0 
 507 -511 0 
 510 -511 0 
 506  504 -512 0 
 506 -513 0 
 504 -513 0 
 512 -513 0 
 510  505 -514 0 
 510 -515 0 
 505 -515 0 
 514 -515 0 
 511  503 -516 0 
 511 -517 0 
 503 -517 0 
 516 -517 0 
 462  500 0 
 462 -518 0 
 500 -518 0 
 393 -518 0 
 477  515 -519 0 
 477 -520 0 
 515 -520 0 
 519 -520 0 
 519  518 -521 0 
 519 -522 0 
 518 -522 0 
 521 -522 0 
 475  513 -523 0 
 475 -524 0 
 513 -524 0 
 523 -524 0 
 479  517 -525 0 
 479 -526 0 
 517 -526 0 
 525 -526 0 
 525  524 -527 0 
 525 -528 0 
 524 -528 0 
 527 -528 0 
 523  521 -529 0 
 523 -530 0 
 521 -530 0 
 529 -530 0 
 527  522 -531 0 
 527 -532 0 
 522 -532 0 
 531 -532 0 
 528  520 -533 0 
 528 -534 0 
 520 -534 0 
 533 -534 0 
 474  512 -535 0 
 474 -536 0 
 512 -536 0 
 535 -536 0 
 478  516 -537 0 
 478 -538 0 
 516 -538 0 
 537 -538 0 
 537  536 -539 0 
 537 -540 0 
 536 -540 0 
 539 -540 0 
 476  514 -541 0 
 476 -542 0 
 514 -542 0 
 541 -542 0 
 471  509 -543 0 
 471 -544 0 
 509 -544 0 
 543 -544 0 
 543  542 -545 0 
 543 -546 0 
 542 -546 0 
 545 -546 0 
 541  539 -547 0 
 541 -548 0 
 539 -548 0 
 547 -548 0 
 545  540 -549 0 
 545 -550 0 
 540 -550 0 
 549 -550 0 
 546  538 -551 0 
 546 -552 0 
 538 -552 0 
 551 -552 0 
 535  529 -553 0 
 535 -554 0 
 529 -554 0 
 553 -554 0 
 547  530 -555 0 
 547 -556 0 
 530 -556 0 
 555 -556 0 
 548  531 -557 0 
 548 -558 0 
 531 -558 0 
 557 -558 0 
 549  532 -559 0 
 549 -560 0 
 532 -560 0 
 559 -560 0 
 550  533 -561 0 
 550 -562 0 
 533 -562 0 
 561 -562 0 
 551  534 -563 0 
 551 -564 0 
 534 -564 0 
 563 -564 0 
 552  526 -565 0 
 552 -566 0 
 526 -566 0 
 565 -566 0 
 435  560 0 
 431  556 0 
 431 -567 0 
 556 -567 0 
 393 -567 0 
 439  564 -568 0 
 568  567 0 
 429  554 0 
 429 -569 0 
 554 -569 0 
 393 -569 0 
 437  562 -570 0 
 570  569 0 
 570 -571 0 
 569 -571 0 
 393 -571 0 
 433  558 0 
 433 -572 0 
 558 -572 0 
 393 -572 0 
 441  566 -573 0 
 573  572 -574 0 
 574  571 0 
 428  553 0 
 428 -575 0 
 553 -575 0 
 393 -575 0 
 436  561 -576 0 
 576  575 0 
 576 -577 0 
 575 -577 0 
 393 -577 0 
 432  557 0 
 432 -578 0 
 557 -578 0 
 393 -578 0 
 440  565 -579 0 
 579  578 -580 0 
 580  577 0 
 580 -581 0 
 577 -581 0 
 393 -581 0 
 430  555 0 
 430 -582 0 
 555 -582 0 
 393 -582 0 
 438  563 -583 0 
 583  582 0 
 583 -584 0 
 582 -584 0 
 393 -584 0 
 434  559 0 
 434 -585 0 
 559 -585 0 
 393 -585 0 
 419  544 -586 0 
 586  585 -587 0 
 587  584 -588 0 
 588  581 0 
